Minimize
 obj: 1 x1 + 2 x2 + 3 x3 + 1 x4
Subject To
 c1: -1 x1 + 1 x2 + 1 x3 + 10 x4 >= 0
 c2: -1 x1 + 1 x2 + 1 x3 + 10 x4 <= 20
 c3: 1 x1 + -3 x2 + 1 x3 + 0 x4 <= 30
 c4: 0 x1 + 1 x2 + 0 x3 + -3.5 x4 = 0
Bounds
 0 <= x1 <= 40
 -1e+20 <= x2 <= 1e+20
 -1e+20 <= x3 <= 1e+20
 2 <= x4 <= 3
General
 x1
 x2
 x3
 x4
End
